p cnf 9 27
-7 7 0
1 -4 5 0
-7 3 0
6 0
-5 0
5 -2 0
8 9 -5 4 0
9 -5 4 -2 0
1 -5 7 0
5 -1 7 0
-7 3 -2 -9 0
-4 5 6 0
-6 3 -1 -5 0
9 2 3 7 0
8 -6 7 0
8 4 6 7 0
-6 -2 0
8 1 0
-6 0
-6 5 0
8 -5 4 6 0
-7 4 -2 7 0
-6 0
8 -5 0
8 -6 -9 0
-5 4 5 0
-6 0
